sat
((p0 1) (p1 9) (p2 7) (p3 6) (p4 3) (p5 2) (p6 5) (p7 4) (p8 8) (p9 8) (p10 2) (p11 4) (p12 1) (p13 9) (p14 5) (p15 3) (p16 7) (p17 6) (p18 5) (p19 6) (p20 3) (p21 7) (p22 8) (p23 4) (p24 9) (p25 2) (p26 1) (p27 3) (p28 1) (p29 2) (p30 5) (p31 7) (p32 9) (p33 8) (p34 6) (p35 4) (p36 7) (p37 8) (p38 6) (p39 3) (p40 4) (p41 1) (p42 2) (p43 9) (p44 5) (p45 4) (p46 5) (p47 9) (p48 8) (p49 2) (p50 6) (p51 1) (p52 3) (p53 7) (p54 9) (p55 4) (p56 5) (p57 2) (p58 6) (p59 8) (p60 7) (p61 1) (p62 3) (p63 6) (p64 3) (p65 1) (p66 9) (p67 5) (p68 7) (p69 4) (p70 8) (p71 2) (p72 2) (p73 7) (p74 8) (p75 4) (p76 1) (p77 3) (p78 6) (p79 5) (p80 9))
